
Gurobi 8.0.0 (linux64, Python) logging started Wed May 23 18:20:03 2018

Academic license - for non-commercial use only

Gurobi 8.0.0 (linux64, Python) logging started Wed May 23 18:20:16 2018

Academic license - for non-commercial use only

Gurobi 8.0.0 (linux64, Python) logging started Wed May 23 18:22:28 2018

Academic license - for non-commercial use only

Gurobi 8.0.0 (linux64, Python) logging started Wed May 23 18:22:57 2018

Academic license - for non-commercial use only

Gurobi 8.0.0 (linux64, Python) logging started Wed May 23 18:31:44 2018

Academic license - for non-commercial use only
Optimize a model with 2316 rows, 1340964 columns and 2681928 nonzeros
Coefficient statistics:
  Matrix range     [1e+00, 1e+00]
  Objective range  [2e-07, 8e+00]
  Bounds range     [0e+00, 0e+00]
  RHS range        [1e+00, 1e+00]

Concurrent LP optimizer: dual simplex and barrier
Showing barrier log only...

Presolve removed 0 rows and 0 columns (presolve time = 19s) ...
Presolve removed 0 rows and 0 columns (presolve time = 20s) ...
Presolve time: 20.36s
Presolved: 2316 rows, 1340964 columns, 2681928 nonzeros

Ordering time: 0.02s

Barrier statistics:
 AA' NZ     : 1.341e+06
 Factor NZ  : 2.683e+06 (roughly 600 MBytes of memory)
 Factor Ops : 4.144e+09 (less than 1 second per iteration)
 Threads    : 1

                  Objective                Residual
Iter       Primal          Dual         Primal    Dual     Compl     Time
   0  -9.05903824e-13  0.00000000e+00  1.16e+02 6.82e+00  1.52e+00    22s
   1   7.42469376e+01 -1.73250255e+04  3.17e-02 9.33e-15  1.34e-02    22s
   2  -1.00993705e+02 -7.10424882e+03  7.99e-15 9.77e-15  5.22e-03    23s
   3  -2.99507125e+02 -4.31338058e+03  4.88e-15 6.05e-15  2.99e-03    23s
   4  -7.08211355e+02 -2.48616811e+03  4.54e-13 4.66e-15  1.33e-03    24s
   5  -1.24197486e+03 -2.10394608e+03  3.84e-14 4.44e-15  6.43e-04    25s
   6  -1.62177366e+03 -2.02328334e+03  8.39e-14 4.44e-15  2.99e-04    25s
   7  -1.71532678e+03 -1.96943202e+03  5.67e-14 7.55e-15  1.89e-04    26s
   8  -1.81949093e+03 -1.94437297e+03  9.65e-14 7.11e-15  9.31e-05    26s
   9  -1.86722234e+03 -1.93182522e+03  3.95e-14 8.88e-15  4.82e-05    27s
  10  -1.89684146e+03 -1.91922429e+03  1.02e-12 7.99e-15  1.67e-05    27s
  11  -1.90917020e+03 -1.91321335e+03  1.02e-12 5.33e-15  3.02e-06    28s

Barrier performed 11 iterations in 27.60 seconds
Barrier solve interrupted - model solved by another algorithm


Solved with dual simplex
Solved in 58564 iterations and 27.62 seconds
Optimal objective -1.911458945e+03
Error: it isn't a multi-objective model
Error: it isn't a multi-objective model
Error: it isn't a multi-objective model
Error: it isn't a multi-objective model
Error: it isn't a multi-objective model
No solution available
Error: it isn't a multi-objective model
No solution available
Error: it isn't a multi-objective model
Error: it isn't a multi-objective model
Error: it isn't a multi-objective model
Error: it isn't a multi-objective model
Error: it isn't a multi-objective model
No solution available
Error: it isn't a multi-objective model
No solution available

Gurobi 8.0.0 (linux64, Python) logging started Wed May 23 18:45:48 2018

Academic license - for non-commercial use only

Gurobi 8.0.0 (linux64, Python) logging started Wed May 23 18:45:58 2018

Academic license - for non-commercial use only

Gurobi 8.0.0 (linux64, Python) logging started Wed May 23 18:46:45 2018

Academic license - for non-commercial use only

Gurobi 8.0.0 (linux64, Python) logging started Wed May 23 18:52:06 2018

Academic license - for non-commercial use only
Optimize a model with 2316 rows, 1340964 columns and 2681928 nonzeros
Coefficient statistics:
  Matrix range     [1e+00, 1e+00]
  Objective range  [2e-07, 8e+00]
  Bounds range     [0e+00, 0e+00]
  RHS range        [1e+00, 1e+00]

Concurrent LP optimizer: dual simplex and barrier
Showing barrier log only...

Presolve time: 2.06s
Presolved: 2316 rows, 1340964 columns, 2681928 nonzeros

Ordering time: 0.01s

Barrier statistics:
 AA' NZ     : 1.341e+06
 Factor NZ  : 2.683e+06 (roughly 600 MBytes of memory)
 Factor Ops : 4.144e+09 (less than 1 second per iteration)
 Threads    : 1

                  Objective                Residual
Iter       Primal          Dual         Primal    Dual     Compl     Time
   0   9.05903824e-13  0.00000000e+00  1.16e+02 7.60e+00  1.70e+00     3s
   1   4.02310420e+01 -1.92816327e+04  1.46e-12 1.20e-14  1.44e-02     3s
   2  -1.08229108e+02 -7.94975758e+03  4.88e-15 9.21e-15  5.85e-03     4s
   3  -2.76235105e+02 -4.89363140e+03  1.98e-14 6.41e-15  3.44e-03     4s
   4  -6.45576167e+02 -2.68712610e+03  2.02e-14 5.11e-15  1.52e-03     5s
   5  -1.13888783e+03 -2.23991775e+03  3.25e-13 3.55e-15  8.21e-04     6s
   6  -1.56194469e+03 -2.11115875e+03  5.86e-14 2.66e-15  4.10e-04     6s
   7  -1.71990871e+03 -2.07282241e+03  2.86e-14 3.55e-15  2.63e-04     6s
   8  -1.82885302e+03 -2.03215701e+03  1.33e-13 5.33e-15  1.52e-04     7s
   9  -1.90821751e+03 -2.00746350e+03  8.45e-13 7.11e-15  7.40e-05     7s
  10  -1.95046449e+03 -1.98540910e+03  2.04e-12 7.11e-15  2.61e-05     8s
  11  -1.96793959e+03 -1.97636627e+03  3.62e-13 3.55e-15  6.28e-06     8s
  12  -1.97131618e+03 -1.97399559e+03  2.11e-11 4.44e-15  2.00e-06     8s
  13  -1.97253595e+03 -1.97339531e+03  6.20e-12 4.00e-15  6.41e-07     9s

Barrier performed 13 iterations in 8.96 seconds
Barrier solve interrupted - model solved by another algorithm


Solved with dual simplex
Solved in 59785 iterations and 8.97 seconds
Optimal objective -1.973096540e+03
Error: it isn't a multi-objective model
Error: it isn't a multi-objective model
Error: it isn't a multi-objective model
Error: it isn't a multi-objective model
Error: it isn't a multi-objective model
No solution available
Error: it isn't a multi-objective model
No solution available
Error: it isn't a multi-objective model
Error: it isn't a multi-objective model
Error: it isn't a multi-objective model
Error: it isn't a multi-objective model
Error: it isn't a multi-objective model
No solution available
Error: it isn't a multi-objective model
No solution available

Gurobi 8.0.0 (linux64, Python) logging started Wed May 23 19:16:49 2018

Academic license - for non-commercial use only

Gurobi 8.0.0 (linux64, Python) logging started Wed May 23 19:16:57 2018

Academic license - for non-commercial use only
Freed default Gurobi environment
Optimize a model with 2316 rows, 1340964 columns and 2681928 nonzeros
Coefficient statistics:
  Matrix range     [1e+00, 1e+00]
  Objective range  [2e-07, 8e+00]
  Bounds range     [0e+00, 0e+00]
  RHS range        [1e+00, 1e+00]

Concurrent LP optimizer: dual simplex and barrier
Showing barrier log only...

Presolve time: 1.99s
Presolved: 2316 rows, 1340964 columns, 2681928 nonzeros

Ordering time: 0.01s

Barrier statistics:
 AA' NZ     : 1.341e+06
 Factor NZ  : 2.683e+06 (roughly 600 MBytes of memory)
 Factor Ops : 4.144e+09 (less than 1 second per iteration)
 Threads    : 1

                  Objective                Residual
Iter       Primal          Dual         Primal    Dual     Compl     Time
   0   9.05903824e-13  0.00000000e+00  1.16e+02 7.60e+00  1.70e+00     3s
   1   4.02310420e+01 -1.92816327e+04  1.46e-12 1.20e-14  1.44e-02     3s
   2  -1.08229108e+02 -7.94975758e+03  4.88e-15 9.21e-15  5.85e-03     4s
   3  -2.76235105e+02 -4.89363140e+03  1.98e-14 6.41e-15  3.44e-03     4s
   4  -6.45576167e+02 -2.68712610e+03  2.02e-14 5.11e-15  1.52e-03     5s
   5  -1.13888783e+03 -2.23991775e+03  3.25e-13 3.55e-15  8.21e-04     5s
   6  -1.56194469e+03 -2.11115875e+03  5.86e-14 2.66e-15  4.10e-04     6s
   7  -1.71990871e+03 -2.07282241e+03  2.86e-14 3.55e-15  2.63e-04     6s
   8  -1.82885302e+03 -2.03215701e+03  1.33e-13 5.33e-15  1.52e-04     7s
   9  -1.90821751e+03 -2.00746350e+03  8.45e-13 7.11e-15  7.40e-05     7s
  10  -1.95046449e+03 -1.98540910e+03  2.04e-12 7.11e-15  2.61e-05     7s
  11  -1.96793959e+03 -1.97636627e+03  3.62e-13 3.55e-15  6.28e-06     8s
  12  -1.97131618e+03 -1.97399559e+03  2.11e-11 4.44e-15  2.00e-06     8s
  13  -1.97253595e+03 -1.97339531e+03  6.20e-12 4.00e-15  6.41e-07     9s

Barrier performed 13 iterations in 8.70 seconds
Barrier solve interrupted - model solved by another algorithm


Solved with dual simplex
Solved in 59785 iterations and 8.71 seconds
Optimal objective -1.973096540e+03
Error: it isn't a multi-objective model
Error: it isn't a multi-objective model
Error: it isn't a multi-objective model
Error: it isn't a multi-objective model
Error: it isn't a multi-objective model
No solution available
Error: it isn't a multi-objective model
No solution available
Error: it isn't a multi-objective model
Error: it isn't a multi-objective model
Error: it isn't a multi-objective model
Error: it isn't a multi-objective model
Error: it isn't a multi-objective model
No solution available
Error: it isn't a multi-objective model
No solution available
Error: it isn't a multi-objective model
Error: it isn't a multi-objective model
Error: it isn't a multi-objective model
Error: it isn't a multi-objective model
Error: it isn't a multi-objective model
No solution available
Error: it isn't a multi-objective model
No solution available
Error: it isn't a multi-objective model
Error: it isn't a multi-objective model
Error: it isn't a multi-objective model
Error: it isn't a multi-objective model
Error: it isn't a multi-objective model
No solution available
Error: it isn't a multi-objective model
No solution available

Gurobi 8.0.0 (linux64, Python) logging started Wed May 23 19:38:43 2018

Academic license - for non-commercial use only

Gurobi 8.0.0 (linux64, Python) logging started Wed May 23 20:07:11 2018

Academic license - for non-commercial use only
Optimize a model with 2316 rows, 1340964 columns and 2681928 nonzeros
Coefficient statistics:
  Matrix range     [1e+00, 1e+00]
  Objective range  [2e-07, 8e+00]
  Bounds range     [0e+00, 0e+00]
  RHS range        [1e+00, 1e+00]

Concurrent LP optimizer: dual simplex and barrier
Showing barrier log only...

Presolve removed 0 rows and 0 columns (presolve time = 8s) ...
Presolve time: 8.80s
Presolved: 2316 rows, 1340964 columns, 2681928 nonzeros

Ordering time: 0.01s

Barrier statistics:
 AA' NZ     : 1.341e+06
 Factor NZ  : 2.683e+06 (roughly 600 MBytes of memory)
 Factor Ops : 4.144e+09 (less than 1 second per iteration)
 Threads    : 1

                  Objective                Residual
Iter       Primal          Dual         Primal    Dual     Compl     Time
   0   9.05903824e-13  0.00000000e+00  1.16e+02 7.60e+00  1.70e+00    10s
   1   4.02310420e+01 -1.92816327e+04  1.46e-12 1.20e-14  1.44e-02    10s
   2  -1.08229108e+02 -7.94975758e+03  4.88e-15 9.21e-15  5.85e-03    11s
   3  -2.76235105e+02 -4.89363140e+03  1.98e-14 6.41e-15  3.44e-03    11s
   4  -6.45576167e+02 -2.68712610e+03  2.02e-14 5.11e-15  1.52e-03    12s
   5  -1.13888783e+03 -2.23991775e+03  3.25e-13 3.55e-15  8.21e-04    12s
   6  -1.56194469e+03 -2.11115875e+03  5.86e-14 2.66e-15  4.10e-04    13s
   7  -1.71990871e+03 -2.07282241e+03  2.86e-14 3.55e-15  2.63e-04    13s
   8  -1.82885302e+03 -2.03215701e+03  1.33e-13 5.33e-15  1.52e-04    14s
   9  -1.90821751e+03 -2.00746350e+03  8.45e-13 7.11e-15  7.40e-05    14s
  10  -1.95046449e+03 -1.98540910e+03  2.04e-12 7.11e-15  2.61e-05    14s
  11  -1.96793959e+03 -1.97636627e+03  3.62e-13 3.55e-15  6.28e-06    15s
  12  -1.97131618e+03 -1.97399559e+03  2.11e-11 4.44e-15  2.00e-06    15s
  13  -1.97253595e+03 -1.97339531e+03  6.20e-12 4.00e-15  6.41e-07    16s
  14  -1.97293297e+03 -1.97323072e+03  2.49e-12 3.55e-15  2.22e-07    16s

Barrier performed 14 iterations in 16.27 seconds
Barrier solve interrupted - model solved by another algorithm


Solved with dual simplex
Solved in 59785 iterations and 16.28 seconds
Optimal objective -1.973096540e+03

Gurobi 8.0.0 (linux64, Python) logging started Wed May 23 20:08:36 2018

Academic license - for non-commercial use only
Optimize a model with 2316 rows, 1340964 columns and 2681928 nonzeros
Coefficient statistics:
  Matrix range     [1e+00, 1e+00]
  Objective range  [2e-07, 8e+00]
  Bounds range     [0e+00, 0e+00]
  RHS range        [1e+00, 1e+00]

Concurrent LP optimizer: dual simplex and barrier
Showing barrier log only...

Presolve time: 5.32s
Presolved: 2316 rows, 1340964 columns, 2681928 nonzeros

Ordering time: 0.01s

Barrier statistics:
 AA' NZ     : 1.341e+06
 Factor NZ  : 2.683e+06 (roughly 600 MBytes of memory)
 Factor Ops : 4.144e+09 (less than 1 second per iteration)
 Threads    : 1

                  Objective                Residual
Iter       Primal          Dual         Primal    Dual     Compl     Time
   0   9.05903824e-13  0.00000000e+00  1.16e+02 7.60e+00  1.70e+00     6s
   1   4.02310420e+01 -1.92816327e+04  1.46e-12 1.20e-14  1.44e-02     7s
   2  -1.08229108e+02 -7.94975758e+03  4.88e-15 9.21e-15  5.85e-03     7s
   3  -2.76235105e+02 -4.89363140e+03  1.98e-14 6.41e-15  3.44e-03     8s
   4  -6.45576167e+02 -2.68712610e+03  2.02e-14 5.11e-15  1.52e-03     8s
   5  -1.13888783e+03 -2.23991775e+03  3.25e-13 3.55e-15  8.21e-04     9s
   6  -1.56194469e+03 -2.11115875e+03  5.86e-14 2.66e-15  4.10e-04     9s
   7  -1.71990871e+03 -2.07282241e+03  2.86e-14 3.55e-15  2.63e-04    10s
   8  -1.82885302e+03 -2.03215701e+03  1.33e-13 5.33e-15  1.52e-04    10s
   9  -1.90821751e+03 -2.00746350e+03  8.45e-13 7.11e-15  7.40e-05    11s
  10  -1.95046449e+03 -1.98540910e+03  2.04e-12 7.11e-15  2.61e-05    11s
  11  -1.96793959e+03 -1.97636627e+03  3.62e-13 3.55e-15  6.28e-06    11s
  12  -1.97131618e+03 -1.97399559e+03  2.11e-11 4.44e-15  2.00e-06    12s
  13  -1.97253595e+03 -1.97339531e+03  6.20e-12 4.00e-15  6.41e-07    12s

Barrier performed 13 iterations in 12.50 seconds
Barrier solve interrupted - model solved by another algorithm


Solved with dual simplex
Solved in 59785 iterations and 12.51 seconds
Optimal objective -1.973096540e+03
Error: it isn't a multi-objective model
Error: it isn't a multi-objective model
Error: it isn't a multi-objective model
Error: it isn't a multi-objective model
Error: it isn't a multi-objective model
No solution available
Error: it isn't a multi-objective model
No solution available
Error: it isn't a multi-objective model
Error: it isn't a multi-objective model
Error: it isn't a multi-objective model
Error: it isn't a multi-objective model
Error: it isn't a multi-objective model
No solution available
Error: it isn't a multi-objective model
No solution available
Error: it isn't a multi-objective model
Error: it isn't a multi-objective model
Error: it isn't a multi-objective model
Error: it isn't a multi-objective model
Error: it isn't a multi-objective model
No solution available
Error: it isn't a multi-objective model
No solution available
Error: it isn't a multi-objective model
Error: it isn't a multi-objective model
Error: it isn't a multi-objective model
Error: it isn't a multi-objective model
Error: it isn't a multi-objective model
No solution available
Error: it isn't a multi-objective model
No solution available

Gurobi 8.0.0 (linux64, Python) logging started Thu May 24 11:27:50 2018

Academic license - for non-commercial use only

Gurobi 8.0.0 (linux64, Python) logging started Thu May 24 11:28:16 2018

Academic license - for non-commercial use only
Optimize a model with 2316 rows, 1340964 columns and 2681928 nonzeros
Coefficient statistics:
  Matrix range     [1e+00, 1e+00]
  Objective range  [2e-07, 8e+00]
  Bounds range     [0e+00, 0e+00]
  RHS range        [1e+00, 1e+00]

Concurrent LP optimizer: dual simplex and barrier
Showing barrier log only...

Presolve removed 0 rows and 0 columns (presolve time = 16s) ...
Presolve removed 0 rows and 0 columns (presolve time = 26s) ...
Presolve removed 0 rows and 0 columns (presolve time = 33s) ...
Presolve time: 37.02s
Presolved: 2316 rows, 1340964 columns, 2681928 nonzeros

Ordering time: 0.01s

Barrier statistics:
 AA' NZ     : 1.341e+06
 Factor NZ  : 2.683e+06 (roughly 600 MBytes of memory)
 Factor Ops : 4.144e+09 (less than 1 second per iteration)
 Threads    : 1

                  Objective                Residual
Iter       Primal          Dual         Primal    Dual     Compl     Time
   0  -9.05903824e-13 -0.00000000e+00  1.16e+02 7.60e+00  1.70e+00    41s
   1  -4.02310420e+01  1.92816327e+04  1.46e-12 1.20e-14  1.44e-02    42s
   2   1.08229108e+02  7.94975758e+03  4.88e-15 9.21e-15  5.85e-03    42s
   3   2.76235105e+02  4.89363140e+03  1.98e-14 6.41e-15  3.44e-03    43s
   4   6.45576167e+02  2.68712610e+03  2.02e-14 5.11e-15  1.52e-03    43s
   5   1.13888783e+03  2.23991775e+03  3.25e-13 3.55e-15  8.21e-04    44s
   6   1.56194469e+03  2.11115875e+03  5.86e-14 2.66e-15  4.10e-04    44s
   7   1.71990871e+03  2.07282241e+03  2.86e-14 3.55e-15  2.63e-04    45s
   8   1.82885302e+03  2.03215701e+03  1.33e-13 5.33e-15  1.52e-04    45s
   9   1.90821751e+03  2.00746350e+03  8.45e-13 7.11e-15  7.40e-05    45s
  10   1.95046449e+03  1.98540910e+03  2.04e-12 7.11e-15  2.61e-05    46s

Barrier performed 10 iterations in 46.05 seconds
Barrier solve interrupted - model solved by another algorithm


Solved with dual simplex
Solved in 59785 iterations and 46.07 seconds
Optimal objective  1.973096540e+03

Gurobi 8.0.0 (linux64, Python) logging started Thu May 24 11:30:40 2018

Academic license - for non-commercial use only
Optimize a model with 2316 rows, 1340964 columns and 2681928 nonzeros
Coefficient statistics:
  Matrix range     [1e+00, 1e+00]
  Objective range  [2e-07, 8e+00]
  Bounds range     [0e+00, 0e+00]
  RHS range        [1e+00, 1e+00]

Concurrent LP optimizer: dual simplex and barrier
Showing barrier log only...

Presolve removed 0 rows and 0 columns (presolve time = 14s) ...
Presolve removed 0 rows and 0 columns (presolve time = 22s) ...
Presolve removed 0 rows and 0 columns (presolve time = 26s) ...
Presolve removed 0 rows and 0 columns (presolve time = 40s) ...
Presolve removed 0 rows and 0 columns (presolve time = 42s) ...
Presolve time: 45.94s
Presolved: 2316 rows, 1340964 columns, 2681928 nonzeros

Ordering time: 0.01s

Barrier statistics:
 AA' NZ     : 1.341e+06
 Factor NZ  : 2.683e+06 (roughly 600 MBytes of memory)
 Factor Ops : 4.144e+09 (less than 1 second per iteration)
 Threads    : 1

                  Objective                Residual
Iter       Primal          Dual         Primal    Dual     Compl     Time
   0  -9.05903824e-13 -0.00000000e+00  1.16e+02 7.60e+00  1.70e+00    48s
   1  -4.02310420e+01  1.92816327e+04  1.46e-12 1.20e-14  1.44e-02    48s
   2   1.08229108e+02  7.94975758e+03  4.88e-15 9.21e-15  5.85e-03    49s
   3   2.76235105e+02  4.89363140e+03  1.98e-14 6.41e-15  3.44e-03    49s
   4   6.45576167e+02  2.68712610e+03  2.02e-14 5.11e-15  1.52e-03    50s
   5   1.13888783e+03  2.23991775e+03  3.25e-13 3.55e-15  8.21e-04    50s
   6   1.56194469e+03  2.11115875e+03  5.86e-14 2.66e-15  4.10e-04    51s
   7   1.71990871e+03  2.07282241e+03  2.86e-14 3.55e-15  2.63e-04    51s
   8   1.82885302e+03  2.03215701e+03  1.33e-13 5.33e-15  1.52e-04    52s
   9   1.90821751e+03  2.00746350e+03  8.45e-13 7.11e-15  7.40e-05    52s
  10   1.95046449e+03  1.98540910e+03  2.04e-12 7.11e-15  2.61e-05    53s
  11   1.96793959e+03  1.97636627e+03  3.62e-13 3.55e-15  6.28e-06    53s

Barrier performed 11 iterations in 53.34 seconds
Barrier solve interrupted - model solved by another algorithm


Solved with dual simplex
Solved in 59785 iterations and 53.36 seconds
Optimal objective  1.973096540e+03

Gurobi 8.0.0 (linux64, Python) logging started Thu May 24 11:51:39 2018

Academic license - for non-commercial use only
Optimize a model with 2316 rows, 1340964 columns and 2681928 nonzeros
Coefficient statistics:
  Matrix range     [1e+00, 1e+00]
  Objective range  [2e-07, 8e+00]
  Bounds range     [0e+00, 0e+00]
  RHS range        [1e+00, 1e+00]

Concurrent LP optimizer: dual simplex and barrier
Showing barrier log only...

Presolve removed 0 rows and 0 columns (presolve time = 21s) ...
Presolve removed 0 rows and 0 columns (presolve time = 28s) ...
Presolve removed 0 rows and 0 columns (presolve time = 34s) ...
Presolve removed 0 rows and 0 columns (presolve time = 40s) ...
Presolve removed 0 rows and 0 columns (presolve time = 40s) ...
Presolve time: 42.80s
Presolved: 2316 rows, 1340964 columns, 2681928 nonzeros

Ordering time: 0.01s

Barrier statistics:
 AA' NZ     : 1.341e+06
 Factor NZ  : 2.683e+06 (roughly 600 MBytes of memory)
 Factor Ops : 4.144e+09 (less than 1 second per iteration)
 Threads    : 1

                  Objective                Residual
Iter       Primal          Dual         Primal    Dual     Compl     Time
   0  -8.79716439e-13 -0.00000000e+00  1.16e+02 7.60e+00  1.70e+00    44s
   1  -4.02310420e+01  1.92816327e+04  1.39e-12 1.01e-14  1.44e-02    45s
   2   1.08229108e+02  7.94975758e+03  6.00e-15 9.38e-15  5.85e-03    45s
   3   2.76235105e+02  4.89363140e+03  1.03e-14 6.66e-15  3.44e-03    46s
   4   6.45576167e+02  2.68712610e+03  1.40e-14 3.55e-15  1.52e-03    46s
   5   1.13888783e+03  2.23991775e+03  2.84e-14 3.55e-15  8.21e-04    47s
   6   1.56194469e+03  2.11115875e+03  8.73e-14 3.55e-15  4.10e-04    48s
   7   1.71990871e+03  2.07282241e+03  2.75e-14 4.44e-15  2.63e-04    48s
   8   1.82885302e+03  2.03215701e+03  6.59e-14 7.99e-15  1.52e-04    48s
   9   1.90821751e+03  2.00746350e+03  8.90e-13 7.33e-15  7.40e-05    49s
  10   1.95046449e+03  1.98540910e+03  1.02e-12 7.99e-15  2.61e-05    49s
  11   1.96793959e+03  1.97636627e+03  3.34e-13 4.44e-15  6.28e-06    50s

Barrier performed 11 iterations in 49.90 seconds
Barrier solve interrupted - model solved by another algorithm


Solved with dual simplex
Solved in 61286 iterations and 49.92 seconds
Optimal objective  1.973096540e+03

Gurobi 8.0.0 (linux64, Python) logging started Thu May 24 11:54:56 2018

Academic license - for non-commercial use only

Gurobi 8.0.0 (linux64, Python) logging started Thu May 24 12:01:47 2018

Academic license - for non-commercial use only
Optimize a model with 2316 rows, 1340964 columns and 2681928 nonzeros
Coefficient statistics:
  Matrix range     [1e+00, 1e+00]
  Objective range  [2e-07, 8e+00]
  Bounds range     [0e+00, 0e+00]
  RHS range        [1e+00, 1e+00]

Concurrent LP optimizer: dual simplex and barrier
Showing barrier log only...

Presolve time: 2.40s
Presolved: 2316 rows, 1340964 columns, 2681928 nonzeros

Ordering time: 0.01s

Barrier statistics:
 AA' NZ     : 1.341e+06
 Factor NZ  : 2.683e+06 (roughly 600 MBytes of memory)
 Factor Ops : 4.144e+09 (less than 1 second per iteration)
 Threads    : 1

                  Objective                Residual
Iter       Primal          Dual         Primal    Dual     Compl     Time
   0  -8.79716439e-13 -0.00000000e+00  1.16e+02 7.60e+00  1.70e+00     4s
   1  -4.02310420e+01  1.92816327e+04  1.39e-12 1.01e-14  1.44e-02     4s
   2   1.08229108e+02  7.94975758e+03  6.00e-15 9.38e-15  5.85e-03     5s
   3   2.76235105e+02  4.89363140e+03  1.03e-14 6.66e-15  3.44e-03     5s
   4   6.45576167e+02  2.68712610e+03  1.40e-14 3.55e-15  1.52e-03     6s
   5   1.13888783e+03  2.23991775e+03  2.84e-14 3.55e-15  8.21e-04     6s
   6   1.56194469e+03  2.11115875e+03  8.73e-14 3.55e-15  4.10e-04     7s
   7   1.71990871e+03  2.07282241e+03  2.75e-14 4.44e-15  2.63e-04     7s
   8   1.82885302e+03  2.03215701e+03  6.59e-14 7.99e-15  1.52e-04     8s
   9   1.90821751e+03  2.00746350e+03  8.90e-13 7.33e-15  7.40e-05     8s
  10   1.95046449e+03  1.98540910e+03  1.02e-12 7.99e-15  2.61e-05     9s
  11   1.96793959e+03  1.97636627e+03  3.34e-13 4.44e-15  6.28e-06     9s

Barrier performed 11 iterations in 9.50 seconds
Barrier solve interrupted - model solved by another algorithm


Solved with dual simplex
Solved in 61286 iterations and 9.51 seconds
Optimal objective  1.973096540e+03

Gurobi 8.0.0 (linux64, Python) logging started Thu May 24 12:06:05 2018

Academic license - for non-commercial use only
Optimize a model with 2316 rows, 1340964 columns and 2681928 nonzeros
Coefficient statistics:
  Matrix range     [1e+00, 1e+00]
  Objective range  [2e-07, 8e+00]
  Bounds range     [0e+00, 0e+00]
  RHS range        [1e+00, 1e+00]

Concurrent LP optimizer: dual simplex and barrier
Showing barrier log only...

Presolve time: 2.36s
Presolved: 2316 rows, 1340964 columns, 2681928 nonzeros

Ordering time: 0.01s

Barrier statistics:
 AA' NZ     : 1.341e+06
 Factor NZ  : 2.683e+06 (roughly 600 MBytes of memory)
 Factor Ops : 4.144e+09 (less than 1 second per iteration)
 Threads    : 1

                  Objective                Residual
Iter       Primal          Dual         Primal    Dual     Compl     Time
   0  -8.79716439e-13 -0.00000000e+00  1.16e+02 7.60e+00  1.70e+00     4s
   1  -4.02310420e+01  1.92816327e+04  1.39e-12 1.01e-14  1.44e-02     4s
   2   1.08229108e+02  7.94975758e+03  6.00e-15 9.38e-15  5.85e-03     5s
   3   2.76235105e+02  4.89363140e+03  1.03e-14 6.66e-15  3.44e-03     5s
   4   6.45576167e+02  2.68712610e+03  1.40e-14 3.55e-15  1.52e-03     6s
   5   1.13888783e+03  2.23991775e+03  2.84e-14 3.55e-15  8.21e-04     6s
   6   1.56194469e+03  2.11115875e+03  8.73e-14 3.55e-15  4.10e-04     7s
   7   1.71990871e+03  2.07282241e+03  2.75e-14 4.44e-15  2.63e-04     7s
   8   1.82885302e+03  2.03215701e+03  6.59e-14 7.99e-15  1.52e-04     8s
   9   1.90821751e+03  2.00746350e+03  8.90e-13 7.33e-15  7.40e-05     8s
  10   1.95046449e+03  1.98540910e+03  1.02e-12 7.99e-15  2.61e-05     9s
  11   1.96793959e+03  1.97636627e+03  3.34e-13 4.44e-15  6.28e-06     9s

Barrier performed 11 iterations in 9.42 seconds
Barrier solve interrupted - model solved by another algorithm


Solved with dual simplex
Solved in 61286 iterations and 9.43 seconds
Optimal objective  1.973096540e+03

Gurobi 8.0.0 (linux64, Python) logging started Tue Jun 12 21:14:14 2018

Academic license - for non-commercial use only

Gurobi 8.0.0 (linux64, Python) logging started Tue Jun 12 21:14:15 2018

Academic license - for non-commercial use only
Optimize a model with 2316 rows, 1340964 columns and 2681928 nonzeros
Coefficient statistics:
  Matrix range     [1e+00, 1e+00]
  Objective range  [2e-07, 8e+00]
  Bounds range     [0e+00, 0e+00]
  RHS range        [1e+00, 1e+00]

Concurrent LP optimizer: dual simplex and barrier
Showing barrier log only...

Optimize a model with 2316 rows, 1340964 columns and 2681928 nonzeros
Coefficient statistics:
  Matrix range     [1e+00, 1e+00]
  Objective range  [2e-07, 8e+00]
  Bounds range     [0e+00, 0e+00]
  RHS range        [1e+00, 1e+00]

Concurrent LP optimizer: dual simplex and barrier
Showing barrier log only...

Presolve removed 0 rows and 0 columns (presolve time = 15s) ...
Presolve removed 0 rows and 0 columns (presolve time = 17s) ...
Presolve time: 19.13s
Presolve time: 19.16s
Presolved: 2316 rows, 1340964 columns, 2681928 nonzeros
Presolved: 2316 rows, 1340964 columns, 2681928 nonzeros


Ordering time: 0.02s
Ordering time: 0.02s

Barrier statistics:
 AA' NZ     : 1.341e+06
 Factor NZ  : 2.683e+06 (roughly 600 MBytes of memory)
 Factor Ops : 4.144e+09 (less than 1 second per iteration)
 Threads    : 1

Barrier statistics:
 AA' NZ     : 1.341e+06
 Factor NZ  : 2.683e+06 (roughly 600 MBytes of memory)
 Factor Ops : 4.144e+09 (less than 1 second per iteration)
 Threads    : 1

                  Objective                Residual
Iter       Primal          Dual         Primal    Dual     Compl     Time
   0  -8.79716439e-13 -0.00000000e+00  1.16e+02 7.60e+00  1.70e+00    24s

                  Objective                Residual
Iter       Primal          Dual         Primal    Dual     Compl     Time
   0  -8.79716439e-13 -0.00000000e+00  1.16e+02 7.60e+00  1.70e+00    24s
   1  -4.02310420e+01  1.92816327e+04  1.39e-12 1.01e-14  1.44e-02    25s
   1  -4.02310420e+01  1.92816327e+04  1.39e-12 1.01e-14  1.44e-02    25s
   2   1.08229108e+02  7.94975758e+03  6.00e-15 9.38e-15  5.85e-03    26s
   2   1.08229108e+02  7.94975758e+03  6.00e-15 9.38e-15  5.85e-03    26s
   3   2.76235105e+02  4.89363140e+03  1.03e-14 6.66e-15  3.44e-03    27s
   3   2.76235105e+02  4.89363140e+03  1.03e-14 6.66e-15  3.44e-03    27s
   4   6.45576167e+02  2.68712610e+03  1.40e-14 3.55e-15  1.52e-03    28s
   4   6.45576167e+02  2.68712610e+03  1.40e-14 3.55e-15  1.52e-03    28s
   5   1.13888783e+03  2.23991775e+03  2.84e-14 3.55e-15  8.21e-04    29s
   5   1.13888783e+03  2.23991775e+03  2.84e-14 3.55e-15  8.21e-04    29s
   6   1.56194469e+03  2.11115875e+03  8.73e-14 3.55e-15  4.10e-04    30s

Barrier performed 6 iterations in 29.68 seconds
Barrier solve interrupted - model solved by another algorithm


Solved with dual simplex
Solved in 61286 iterations and 29.72 seconds
Optimal objective  1.973096540e+03
   6   1.56194469e+03  2.11115875e+03  8.73e-14 3.55e-15  4.10e-04    30s

Barrier performed 6 iterations in 29.97 seconds
Barrier solve interrupted - model solved by another algorithm


Solved with dual simplex
Solved in 61286 iterations and 29.99 seconds
Optimal objective  1.973096540e+03

Gurobi 8.0.0 (linux64, Python) logging started Tue Jun 12 22:11:24 2018

Academic license - for non-commercial use only
Optimize a model with 2316 rows, 1340964 columns and 2681928 nonzeros
Coefficient statistics:
  Matrix range     [1e+00, 1e+00]
  Objective range  [2e-07, 8e+00]
  Bounds range     [0e+00, 0e+00]
  RHS range        [1e+00, 1e+00]

Concurrent LP optimizer: dual simplex and barrier
Showing barrier log only...

Presolve time: 2.45s
Presolved: 2316 rows, 1340964 columns, 2681928 nonzeros

Ordering time: 0.01s

Barrier statistics:
 AA' NZ     : 1.341e+06
 Factor NZ  : 2.683e+06 (roughly 600 MBytes of memory)
 Factor Ops : 4.144e+09 (less than 1 second per iteration)
 Threads    : 1

                  Objective                Residual
Iter       Primal          Dual         Primal    Dual     Compl     Time
   0  -8.79716439e-13 -0.00000000e+00  1.16e+02 7.60e+00  1.70e+00     4s
   1  -4.02310420e+01  1.92816327e+04  1.39e-12 1.01e-14  1.44e-02     4s
   2   1.08229108e+02  7.94975758e+03  6.00e-15 9.38e-15  5.85e-03     5s
   3   2.76235105e+02  4.89363140e+03  1.03e-14 6.66e-15  3.44e-03     5s
   4   6.45576167e+02  2.68712610e+03  1.40e-14 3.55e-15  1.52e-03     6s
   5   1.13888783e+03  2.23991775e+03  2.84e-14 3.55e-15  8.21e-04     7s
   6   1.56194469e+03  2.11115875e+03  8.73e-14 3.55e-15  4.10e-04     7s
   7   1.71990871e+03  2.07282241e+03  2.75e-14 4.44e-15  2.63e-04     8s
   8   1.82885302e+03  2.03215701e+03  6.59e-14 7.99e-15  1.52e-04     8s
   9   1.90821751e+03  2.00746350e+03  8.90e-13 7.33e-15  7.40e-05     9s
  10   1.95046449e+03  1.98540910e+03  1.02e-12 7.99e-15  2.61e-05     9s
  11   1.96793959e+03  1.97636627e+03  3.34e-13 4.44e-15  6.28e-06    10s

Barrier performed 11 iterations in 9.80 seconds
Barrier solve interrupted - model solved by another algorithm


Solved with dual simplex
Solved in 61286 iterations and 9.81 seconds
Optimal objective  1.973096540e+03

Gurobi 8.0.0 (linux64, Python) logging started Tue Jun 12 22:16:06 2018

Academic license - for non-commercial use only
Optimize a model with 2316 rows, 1340964 columns and 2681928 nonzeros
Coefficient statistics:
  Matrix range     [1e+00, 1e+00]
  Objective range  [2e-07, 8e+00]
  Bounds range     [0e+00, 0e+00]
  RHS range        [1e+00, 1e+00]

Concurrent LP optimizer: dual simplex and barrier
Showing barrier log only...

Presolve removed 0 rows and 0 columns (presolve time = 23s) ...
Presolve removed 0 rows and 0 columns (presolve time = 26s) ...
Presolve time: 26.77s
Presolved: 2316 rows, 1340964 columns, 2681928 nonzeros

Ordering time: 0.01s

Barrier statistics:
 AA' NZ     : 1.341e+06
 Factor NZ  : 2.683e+06 (roughly 600 MBytes of memory)
 Factor Ops : 4.144e+09 (less than 1 second per iteration)
 Threads    : 1

                  Objective                Residual
Iter       Primal          Dual         Primal    Dual     Compl     Time
   0  -8.79716439e-13 -0.00000000e+00  1.16e+02 7.60e+00  1.70e+00    29s
   1  -4.02310420e+01  1.92816327e+04  1.39e-12 1.01e-14  1.44e-02    29s
   2   1.08229108e+02  7.94975758e+03  6.00e-15 9.38e-15  5.85e-03    30s
   3   2.76235105e+02  4.89363140e+03  1.03e-14 6.66e-15  3.44e-03    30s
   4   6.45576167e+02  2.68712610e+03  1.40e-14 3.55e-15  1.52e-03    31s
   5   1.13888783e+03  2.23991775e+03  2.84e-14 3.55e-15  8.21e-04    32s
   6   1.56194469e+03  2.11115875e+03  8.73e-14 3.55e-15  4.10e-04    32s
   7   1.71990871e+03  2.07282241e+03  2.75e-14 4.44e-15  2.63e-04    33s
   8   1.82885302e+03  2.03215701e+03  6.59e-14 7.99e-15  1.52e-04    33s

Barrier performed 8 iterations in 33.25 seconds
Barrier solve interrupted - model solved by another algorithm


Solved with dual simplex
Solved in 61286 iterations and 33.27 seconds
Optimal objective  1.973096540e+03

Gurobi 8.0.0 (linux64, Python) logging started Tue Jun 12 22:27:53 2018

Academic license - for non-commercial use only
Optimize a model with 2316 rows, 1340964 columns and 2681928 nonzeros
Coefficient statistics:
  Matrix range     [1e+00, 1e+00]
  Objective range  [2e-07, 8e+00]
  Bounds range     [0e+00, 0e+00]
  RHS range        [1e+00, 1e+00]

Concurrent LP optimizer: dual simplex and barrier
Showing barrier log only...

Presolve removed 0 rows and 0 columns (presolve time = 11s) ...
Presolve removed 0 rows and 0 columns (presolve time = 18s) ...
Presolve removed 0 rows and 0 columns (presolve time = 27s) ...
Presolve time: 29.99s
Presolved: 2316 rows, 1340964 columns, 2681928 nonzeros

Ordering time: 0.01s

Barrier statistics:
 AA' NZ     : 1.341e+06
 Factor NZ  : 2.683e+06 (roughly 600 MBytes of memory)
 Factor Ops : 4.144e+09 (less than 1 second per iteration)
 Threads    : 1

                  Objective                Residual
Iter       Primal          Dual         Primal    Dual     Compl     Time
   0  -8.79716439e-13 -0.00000000e+00  1.16e+02 7.60e+00  1.70e+00    32s
   1  -4.02310420e+01  1.92816327e+04  1.39e-12 1.01e-14  1.44e-02    32s
   2   1.08229108e+02  7.94975758e+03  6.00e-15 9.38e-15  5.85e-03    33s
   3   2.76235105e+02  4.89363140e+03  1.03e-14 6.66e-15  3.44e-03    33s
   4   6.45576167e+02  2.68712610e+03  1.40e-14 3.55e-15  1.52e-03    34s

Barrier performed 4 iterations in 34.20 seconds
Barrier solve interrupted - model solved by another algorithm


Solved with dual simplex
Solved in 61286 iterations and 34.22 seconds
Optimal objective  1.973096540e+03

Gurobi 8.0.0 (linux64, Python) logging started Thu Jun 14 15:38:16 2018

Academic license - for non-commercial use only

Gurobi 8.0.0 (linux64, Python) logging started Thu Jun 14 15:38:43 2018

Academic license - for non-commercial use only
